(set-logic HORN)
(declare-datatypes ((Lst 0))
  (((nil) (cons (head Int) (tail Lst))))) ; [] | (n :: rest)
(declare-fun %%Merge (Lst Lst Lst) Bool)
(declare-fun %f2 (Bool Lst Lst Lst) Bool)
(declare-fun %drop_r (Bool Lst) Bool)
(declare-fun %send_fun (Bool Lst Int) Bool)
(declare-fun %fail (Bool) Bool)
(declare-fun %%Sorted (Lst) Bool)
(declare-fun %f1 (Bool Lst Lst) Bool)
(declare-fun %unit (Bool) Bool)
(declare-fun %f3 (Bool Lst Lst) Bool)
(declare-fun %entry (Bool) Bool)
(declare-fun %assert (Bool Int) Bool)
(declare-fun %drop_s (Bool Lst) Bool)
(declare-fun %f5 (Bool Lst Lst Int) Bool)
(declare-fun %drop_s_r (Bool Lst Lst) Bool)
(assert (forall ((%l Lst))
    (=> true
        (%%Merge %l nil %l))))
(assert (forall ((%l Lst))
    (=> true
        (%%Merge nil %l %l))))
(assert (forall ((%l1 Lst) (%l2 Lst) (%l3 Lst) (%l1tail Lst) (%l3tail Lst) (%p Int))
    (=> (and (%%Merge %l1tail %l2 %l3tail)
             (= %l1 (cons %p %l1tail))
             (= %l3 (cons %p %l3tail)))
        (%%Merge %l1 %l2 %l3))))
(assert (forall ((%l1 Lst) (%l2 Lst) (%l3 Lst) (%l2tail Lst) (%l3tail Lst) (%p Int))
    (=> (and (%%Merge %l1 %l2tail %l3tail)
             (= %l2 (cons %p %l2tail))
             (= %l3 (cons %p %l3tail)))
        (%%Merge %l1 %l2 %l3))))
(assert (forall ((%s Lst) (%%t Int) (%%b Bool) (%v Int))
    (=> (and (= %s nil))
        (%send_fun false %s %v))))
(assert (forall ((%s Lst) (%%t Int) (%%b Bool) (%v Int) (%s%0 Lst))
    (=> (and (%drop_s %%b %s%0)
             (= %s (cons %v %s%0)))
        (%send_fun %%b %s %v))))
(assert (forall ((%%b Bool) (%%t Int))
    (=> true
        (%entry false))))
(assert (forall ((%s1 Lst) (%%b Bool) (%%t Int) (%r Lst))
    (=> (and (%f1 %%b %s1 %r)
             (= %r %s1))
        (%entry %%b))))
(assert (forall ((%cond Int) (%%b Bool) (%%t Int))
    (=> true
        (%assert false %cond))))
(assert (forall ((%cond Int) (%%b Bool) (%%t Int))
    (=> (and (%unit %%b)
             (not (= %cond 0)))
        (%assert %%b %cond))))
(assert (forall ((%cond Int) (%%b Bool) (%%t Int))
    (=> (and (%fail %%b)
             (= %cond 0))
        (%assert %%b %cond))))
(assert (forall ((%s Lst) (%%b Bool) (%%t Int))
    (=> (and (= %s nil))
        (%drop_s false %s))))
(assert (forall ((%s Lst) (%%b Bool) (%%t Int))
    (=> (and (= %%b false)
             (= %s nil))
        (%drop_s %%b %s))))
(assert (forall ((%s Lst) (%%b Bool) (%%t Int) (%r Lst))
    (=> (and (= %s nil))
        (%drop_s_r false %s %r))))
(assert (forall ((%s Lst) (%%b Bool) (%%t Int) (%r Lst))
    (=> (and (= %%b false)
             (= %s nil))
        (%drop_s_r %%b %s %r))))
(assert (forall ((%s1 Lst) (%%b Bool) (%%t Int) (%r Lst))
    (=> (and (= %s1 nil))
        (%f1 false %s1 %r))))
(assert (forall ((%s1 Lst) (%%b Bool) (%%t Int) (%r Lst) (%s2 Lst) (%s1%1 Lst))
    (=> (and (%%Merge %s2 %s1%1 %s1)
             (%f2 %%b %s1%1 %s2 %r))
        (%f1 %%b %s1 %r))))
(assert (forall ((%recv1 Int) (%s Lst) (%%b Bool) (%%t Int) (%r Lst))
    (=> (and (= %s nil))
        (%f5 false %s %r %recv1))))
(assert (forall ((%recv1 Int) (%s Lst) (%%b Bool) (%%t Int) (%r Lst) (%%b%2 Bool) (%%b%3 Bool))
    (=> (and (%drop_s_r %%b%2 %s %r)
             (%assert %%b%3 (ite (= %recv1 10) 1 0))
             (= %%b (or %%b%2 %%b%3)))
        (%f5 %%b %s %r %recv1))))
(assert (forall ((%%b Bool) (%%t Int))
    (=> true
        (%unit false))))
(assert (forall ((%%b Bool) (%%t Int))
    (=> (and (= %%b false))
        (%unit %%b))))
(assert (forall ((%s Lst) (%%b Bool) (%%t Int) (%r Lst))
    (=> (and (= %s nil))
        (%f3 false %s %r))))
(assert (forall ((%%t%5 Int) (%recv1 Int) (%%t%4 Int) (%r Lst) (%s Lst) (%%b Bool) (%%t Int) (%r%6 Lst))
    (=> (and (= %r nil)
             (= %%b false))
        (%f3 %%b %s %r))))
(assert (forall ((%%t%5 Int) (%recv1 Int) (%%t%4 Int) (%r Lst) (%s Lst) (%%b Bool) (%%t Int) (%r%6 Lst))
    (=> (and (%f5 %%b %s %r%6 %recv1)
             (= %r (cons %recv1 %r%6)))
        (%f3 %%b %s %r))))
(assert (forall ((%r Lst) (%s2 Lst) (%s1 Lst) (%%b Bool) (%%t Int))
    (=> (and (= %s1 nil)
             (= %s2 nil))
        (%f2 false %s1 %s2 %r))))
(assert (forall ((%%b%8 Bool) (%r Lst) (%s2 Lst) (%s1 Lst) (%%b Bool) (%%t Int) (%%b%7 Bool))
    (=> (and (%send_fun %%b%7 %s1 10)
             (%f3 %%b%8 %s2 %r)
             (= %%b (or %%b%7 %%b%8)))
        (%f2 %%b %s1 %s2 %r))))
(assert (forall ((%r Lst) (%%b Bool) (%%t Int))
    (=> true
        (%drop_r false %r))))
(assert (forall ((%r Lst) (%%b Bool) (%%t Int))
    (=> (and (= %%b false))
        (%drop_r %%b %r))))
(assert (forall ((%%b Bool) (%%t Int))
    (=> true
        (%fail false))))
(assert (forall ((%%b Bool) (%%t Int))
    (=> (and (= %%b true))
        (%fail %%b))))
(assert (forall ((%%t Int))
    (=> (and (%entry true))
        false)))
(check-sat)
